POSCAR_Ag_Ov1 
1.0 
9.940673 -5.739250 0.000000 
0.000000 11.478500 0.000000 
0.000000 0.000000 17.810101 
 H
 2
Selective Dynamics
Direct 
2
3
