POSCAR_Ba_Ov0 
1.0 
9.940673 -5.739250 0.000000 
0.000000 11.478500 0.000000 
0.000000 0.000000 17.810101 
O Ba Ce  H
54 1 26  1
Selective Dynamics
Direct 
0.281580 0.031740 0.175410 T T T 
0.059360 0.253960 0.350820 T T T 
0.170470 0.142850 0.000000 T T T 
0.281580 0.031740 0.438520 T T T 
0.170470 0.142850 0.263110 T T T 
0.059360 0.253960 0.087700 T T T 
0.614920 0.031740 0.175410 T T T 
0.392690 0.253960 0.350820 T T T 
0.503800 0.142850 0.000000 T T T 
0.614920 0.031740 0.438520 T T T 
0.503800 0.142850 0.263110 T T T 
0.392690 0.253960 0.087700 T T T 
0.948250 0.031740 0.175410 T T T 
0.726030 0.253960 0.350820 T T T 
0.837140 0.142850 0.000000 T T T 
0.948250 0.031740 0.438520 T T T 
0.837140 0.142850 0.263110 T T T 
0.726030 0.253960 0.087700 T T T 
0.281580 0.365070 0.175410 T T T 
0.059360 0.587290 0.350820 T T T 
0.170470 0.476180 0.000000 T T T 
0.281580 0.365070 0.438520 T T T 
0.170470 0.476180 0.263110 T T T 
0.059360 0.587290 0.087700 T T T 
0.614920 0.365070 0.175410 T T T 
0.392690 0.587290 0.350820 T T T 
0.503800 0.476180 0.000000 T T T 
0.614920 0.365070 0.438520 T T T 
0.503800 0.476180 0.263110 T T T 
0.392690 0.587290 0.087700 T T T 
0.948250 0.365070 0.175410 T T T 
0.726030 0.587290 0.350820 T T T 
0.837140 0.476180 0.000000 T T T 
0.948250 0.365070 0.438520 T T T 
0.837140 0.476180 0.263110 T T T 
0.726030 0.587290 0.087700 T T T 
0.281580 0.698410 0.175410 T T T 
0.059360 0.920630 0.350820 T T T 
0.170470 0.809520 0.000000 T T T 
0.281580 0.698410 0.438520 T T T 
0.170470 0.809520 0.263110 T T T 
0.059360 0.920630 0.087700 T T T 
0.614920 0.698410 0.175410 T T T 
0.392690 0.920630 0.350820 T T T 
0.503800 0.809520 0.000000 T T T 
0.614920 0.698410 0.438520 T T T 
0.503800 0.809520 0.263110 T T T 
0.392690 0.920630 0.087700 T T T 
0.948250 0.698410 0.175410 T T T 
0.726030 0.920630 0.350820 T T T 
0.837140 0.809520 0.000000 T T T 
0.948250 0.698410 0.438520 T T T 
0.837140 0.809520 0.263110 T T T 
0.726030 0.920630 0.087700 T T T 
0.503800 0.476180 0.394670 T T T 
0.170470 0.142850 0.394670 T T T 
0.059360 0.253960 0.219260 T T T 
0.281580 0.031740 0.043850 T T T 
0.503800 0.142850 0.394670 T T T 
0.392690 0.253960 0.219260 T T T 
0.614920 0.031740 0.043850 T T T 
0.837140 0.142850 0.394670 T T T 
0.726030 0.253960 0.219260 T T T 
0.948250 0.031740 0.043850 T T T 
0.170470 0.476180 0.394670 T T T 
0.059360 0.587290 0.219260 T T T 
0.281580 0.365070 0.043850 T T T 
0.392690 0.587290 0.219260 T T T 
0.614920 0.365070 0.043850 T T T 
0.837140 0.476180 0.394670 T T T 
0.726030 0.587290 0.219260 T T T 
0.948250 0.365070 0.043850 T T T 
0.170470 0.809520 0.394670 T T T 
0.059360 0.920630 0.219260 T T T 
0.281580 0.698410 0.043850 T T T 
0.503800 0.809520 0.394670 T T T 
0.392690 0.920630 0.219260 T T T 
0.614920 0.698410 0.043850 T T T 
0.837140 0.809520 0.394670 T T T 
0.726030 0.920630 0.219260 T T T 
0.948250 0.698410 0.043850 T T T 
0.446598 0.216020 0.433410 T T T 
