#INCAR_1
SYSTEM = CeO2
ISPIN = 2
PREC = Normal
ENCUT = 500
EDIFF = 1E-5

IBRION = 1
NELMIN = 8
ALGO = Fast
LREAL = A
LPLANE = .TRUE.
NPAR = 4
NSIM = 4
NELM = 500
ISIF = 2
NSW = 1000
ISMEAR = 0 ; SIGMA = 0.05
POTIM = 0.3
ISTART = 0
EDIFFG = -0.05
#LAECHG = .TRUE.
LWAVE = .FALSE.
LCHARG = .FALSE.

#MAGMOM = 3*4 16*0 38*0

LMAXMIX = 6

LDAU = .TRUE.
LDAUTYPE = 2
LDAUL =  -1 -1 3 
LDAUU =  0 0 5 
LDAUJ = 0 0 0 
LDAUPRINT = 0

PREC = A
LELF = T

